
Gurobi 8.1.0 (mac64, Python) logging started Mon Apr 15 21:15:23 2019

Academic license - for non-commercial use only
Parameter OutputFlag unchanged
   Value: 1  Min: 0  Max: 1  Default: 1
Optimize a model with 204 rows, 85 columns and 370 nonzeros
Coefficient statistics:
  Matrix range     [2e-02, 1e+00]
  Objective range  [1e+00, 1e+00]
  Bounds range     [0e+00, 0e+00]
  RHS range        [1e+00, 3e+01]
Presolve removed 204 rows and 85 columns
Presolve time: 0.00s
Presolve: All rows and columns removed
Iteration    Objective       Primal Inf.    Dual Inf.      Time
       0   -0.0000000e+00   0.000000e+00   0.000000e+00      0s

Solved in 0 iterations and 0.00 seconds
Optimal objective -0.000000000e+00
Parameter OutputFlag unchanged
   Value: 1  Min: 0  Max: 1  Default: 1
Optimize a model with 204 rows, 85 columns and 370 nonzeros
Coefficient statistics:
  Matrix range     [2e-02, 1e+00]
  Objective range  [1e+00, 1e+00]
  Bounds range     [0e+00, 0e+00]
  RHS range        [1e+00, 3e+01]
Presolve removed 173 rows and 15 columns
Presolve time: 0.00s
Presolved: 31 rows, 70 columns, 165 nonzeros

Iteration    Objective       Primal Inf.    Dual Inf.      Time
       0    6.8168000e-01   6.040080e+00   0.000000e+00      0s
      22    6.1111111e-02   0.000000e+00   0.000000e+00      0s

Solved in 22 iterations and 0.00 seconds
Optimal objective  6.111111111e-02
Parameter OutputFlag unchanged
   Value: 1  Min: 0  Max: 1  Default: 1
Optimize a model with 204 rows, 85 columns and 370 nonzeros
Coefficient statistics:
  Matrix range     [2e-02, 1e+00]
  Objective range  [1e+00, 1e+00]
  Bounds range     [0e+00, 0e+00]
  RHS range        [1e+00, 3e+01]
Presolve removed 173 rows and 15 columns
Presolve time: 0.00s
Presolved: 31 rows, 70 columns, 165 nonzeros

Iteration    Objective       Primal Inf.    Dual Inf.      Time
       0    6.8168000e-01   1.099008e+01   0.000000e+00      0s
      27    1.2222222e-01   0.000000e+00   0.000000e+00      0s

Solved in 27 iterations and 0.00 seconds
Optimal objective  1.222222222e-01
Parameter OutputFlag unchanged
   Value: 1  Min: 0  Max: 1  Default: 1
Optimize a model with 204 rows, 85 columns and 370 nonzeros
Coefficient statistics:
  Matrix range     [2e-02, 1e+00]
  Objective range  [1e+00, 1e+00]
  Bounds range     [0e+00, 0e+00]
  RHS range        [1e+00, 3e+01]
Presolve removed 173 rows and 15 columns
Presolve time: 0.00s
Presolved: 31 rows, 70 columns, 165 nonzeros

Iteration    Objective       Primal Inf.    Dual Inf.      Time
       0    6.8168000e-01   1.594008e+01   0.000000e+00      0s
      31    1.8333333e-01   0.000000e+00   0.000000e+00      0s

Solved in 31 iterations and 0.00 seconds
Optimal objective  1.833333333e-01
Parameter OutputFlag unchanged
   Value: 1  Min: 0  Max: 1  Default: 1
Optimize a model with 204 rows, 85 columns and 370 nonzeros
Coefficient statistics:
  Matrix range     [2e-02, 1e+00]
  Objective range  [1e+00, 1e+00]
  Bounds range     [0e+00, 0e+00]
  RHS range        [1e+00, 4e+01]
Presolve removed 173 rows and 15 columns
Presolve time: 0.00s
Presolved: 31 rows, 70 columns, 165 nonzeros

Iteration    Objective       Primal Inf.    Dual Inf.      Time
       0    6.8168000e-01   2.089008e+01   0.000000e+00      0s
      32    2.4444444e-01   0.000000e+00   0.000000e+00      0s

Solved in 32 iterations and 0.00 seconds
Optimal objective  2.444444444e-01
Parameter OutputFlag unchanged
   Value: 1  Min: 0  Max: 1  Default: 1
Optimize a model with 204 rows, 85 columns and 370 nonzeros
Coefficient statistics:
  Matrix range     [2e-02, 1e+00]
  Objective range  [1e+00, 1e+00]
  Bounds range     [0e+00, 0e+00]
  RHS range        [1e+00, 5e+01]
Presolve removed 173 rows and 15 columns
Presolve time: 0.00s
Presolved: 31 rows, 70 columns, 165 nonzeros

Iteration    Objective       Primal Inf.    Dual Inf.      Time
       0    6.8168000e-01   2.584008e+01   0.000000e+00      0s
      29    3.0555556e-01   0.000000e+00   0.000000e+00      0s

Solved in 29 iterations and 0.00 seconds
Optimal objective  3.055555556e-01
Parameter OutputFlag unchanged
   Value: 1  Min: 0  Max: 1  Default: 1
Optimize a model with 204 rows, 85 columns and 370 nonzeros
Coefficient statistics:
  Matrix range     [2e-02, 1e+00]
  Objective range  [1e+00, 1e+00]
  Bounds range     [0e+00, 0e+00]
  RHS range        [1e+00, 6e+01]
Presolve removed 173 rows and 15 columns
Presolve time: 0.00s
Presolved: 31 rows, 70 columns, 165 nonzeros

Iteration    Objective       Primal Inf.    Dual Inf.      Time
       0    6.8168000e-01   3.079008e+01   0.000000e+00      0s
      32    3.6666667e-01   0.000000e+00   0.000000e+00      0s

Solved in 32 iterations and 0.00 seconds
Optimal objective  3.666666667e-01
Parameter OutputFlag unchanged
   Value: 1  Min: 0  Max: 1  Default: 1
Optimize a model with 204 rows, 85 columns and 370 nonzeros
Coefficient statistics:
  Matrix range     [2e-02, 1e+00]
  Objective range  [1e+00, 1e+00]
  Bounds range     [0e+00, 0e+00]
  RHS range        [1e+00, 7e+01]
Presolve removed 173 rows and 15 columns
Presolve time: 0.00s
Presolved: 31 rows, 70 columns, 165 nonzeros

Iteration    Objective       Primal Inf.    Dual Inf.      Time
       0    6.8168000e-01   3.574008e+01   0.000000e+00      0s
      35    4.2777778e-01   0.000000e+00   0.000000e+00      0s

Solved in 35 iterations and 0.00 seconds
Optimal objective  4.277777778e-01
Parameter OutputFlag unchanged
   Value: 1  Min: 0  Max: 1  Default: 1
Optimize a model with 204 rows, 85 columns and 370 nonzeros
Coefficient statistics:
  Matrix range     [2e-02, 1e+00]
  Objective range  [1e+00, 1e+00]
  Bounds range     [0e+00, 0e+00]
  RHS range        [1e+00, 8e+01]
Presolve removed 173 rows and 15 columns
Presolve time: 0.00s
Presolved: 31 rows, 70 columns, 165 nonzeros

Iteration    Objective       Primal Inf.    Dual Inf.      Time
       0    6.8168000e-01   4.069008e+01   0.000000e+00      0s
      51    4.8888889e-01   0.000000e+00   0.000000e+00      0s

Solved in 51 iterations and 0.00 seconds
Optimal objective  4.888888889e-01
Parameter OutputFlag unchanged
   Value: 1  Min: 0  Max: 1  Default: 1
Optimize a model with 204 rows, 85 columns and 370 nonzeros
Coefficient statistics:
  Matrix range     [2e-02, 1e+00]
  Objective range  [1e+00, 1e+00]
  Bounds range     [0e+00, 0e+00]
  RHS range        [1e+00, 9e+01]
Presolve removed 173 rows and 15 columns
Presolve time: 0.00s
Presolved: 31 rows, 70 columns, 165 nonzeros

Iteration    Objective       Primal Inf.    Dual Inf.      Time
       0    6.8168000e-01   4.564008e+01   0.000000e+00      0s
      57    5.5000000e-01   0.000000e+00   0.000000e+00      0s

Solved in 57 iterations and 0.00 seconds
Optimal objective  5.500000000e-01
Parameter OutputFlag unchanged
   Value: 1  Min: 0  Max: 1  Default: 1
Optimize a model with 204 rows, 85 columns and 370 nonzeros
Coefficient statistics:
  Matrix range     [2e-02, 1e+00]
  Objective range  [1e+00, 1e+00]
  Bounds range     [0e+00, 0e+00]
  RHS range        [1e+00, 1e+02]
Presolve removed 173 rows and 15 columns
Presolve time: 0.00s
Presolved: 31 rows, 70 columns, 165 nonzeros

Iteration    Objective       Primal Inf.    Dual Inf.      Time
       0    6.8168000e-01   5.059008e+01   0.000000e+00      0s
      63    6.0389610e-01   0.000000e+00   0.000000e+00      0s

Solved in 63 iterations and 0.00 seconds
Optimal objective  6.038961039e-01

Gurobi 8.1.0 (mac64, Python) logging started Mon Apr 15 21:18:56 2019

Academic license - for non-commercial use only
Parameter OutputFlag unchanged
   Value: 1  Min: 0  Max: 1  Default: 1
Optimize a model with 204 rows, 85 columns and 370 nonzeros
Coefficient statistics:
  Matrix range     [2e-02, 1e+00]
  Objective range  [1e+00, 1e+00]
  Bounds range     [0e+00, 0e+00]
  RHS range        [1e+00, 3e+01]
Presolve removed 204 rows and 85 columns
Presolve time: 0.01s
Presolve: All rows and columns removed
Iteration    Objective       Primal Inf.    Dual Inf.      Time
       0   -0.0000000e+00   0.000000e+00   0.000000e+00      0s

Solved in 0 iterations and 0.01 seconds
Optimal objective -0.000000000e+00
Parameter OutputFlag unchanged
   Value: 1  Min: 0  Max: 1  Default: 1
Optimize a model with 204 rows, 85 columns and 370 nonzeros
Coefficient statistics:
  Matrix range     [2e-02, 1e+00]
  Objective range  [1e+00, 1e+00]
  Bounds range     [0e+00, 0e+00]
  RHS range        [1e+00, 3e+01]
Presolve removed 173 rows and 15 columns
Presolve time: 0.00s
Presolved: 31 rows, 70 columns, 165 nonzeros

Iteration    Objective       Primal Inf.    Dual Inf.      Time
       0    6.8168000e-01   6.040080e+00   0.000000e+00      0s
      22    6.1111111e-02   0.000000e+00   0.000000e+00      0s

Solved in 22 iterations and 0.00 seconds
Optimal objective  6.111111111e-02
Parameter OutputFlag unchanged
   Value: 1  Min: 0  Max: 1  Default: 1
Optimize a model with 204 rows, 85 columns and 370 nonzeros
Coefficient statistics:
  Matrix range     [2e-02, 1e+00]
  Objective range  [1e+00, 1e+00]
  Bounds range     [0e+00, 0e+00]
  RHS range        [1e+00, 3e+01]
Presolve removed 173 rows and 15 columns
Presolve time: 0.00s
Presolved: 31 rows, 70 columns, 165 nonzeros

Iteration    Objective       Primal Inf.    Dual Inf.      Time
       0    6.8168000e-01   1.099008e+01   0.000000e+00      0s
      27    1.2222222e-01   0.000000e+00   0.000000e+00      0s

Solved in 27 iterations and 0.00 seconds
Optimal objective  1.222222222e-01
Parameter OutputFlag unchanged
   Value: 1  Min: 0  Max: 1  Default: 1
Optimize a model with 204 rows, 85 columns and 370 nonzeros
Coefficient statistics:
  Matrix range     [2e-02, 1e+00]
  Objective range  [1e+00, 1e+00]
  Bounds range     [0e+00, 0e+00]
  RHS range        [1e+00, 3e+01]
Presolve removed 173 rows and 15 columns
Presolve time: 0.00s
Presolved: 31 rows, 70 columns, 165 nonzeros

Iteration    Objective       Primal Inf.    Dual Inf.      Time
       0    6.8168000e-01   1.594008e+01   0.000000e+00      0s
      31    1.8333333e-01   0.000000e+00   0.000000e+00      0s

Solved in 31 iterations and 0.00 seconds
Optimal objective  1.833333333e-01
Parameter OutputFlag unchanged
   Value: 1  Min: 0  Max: 1  Default: 1
Optimize a model with 204 rows, 85 columns and 370 nonzeros
Coefficient statistics:
  Matrix range     [2e-02, 1e+00]
  Objective range  [1e+00, 1e+00]
  Bounds range     [0e+00, 0e+00]
  RHS range        [1e+00, 4e+01]
Presolve removed 173 rows and 15 columns
Presolve time: 0.00s
Presolved: 31 rows, 70 columns, 165 nonzeros

Iteration    Objective       Primal Inf.    Dual Inf.      Time
       0    6.8168000e-01   2.089008e+01   0.000000e+00      0s
      32    2.4444444e-01   0.000000e+00   0.000000e+00      0s

Solved in 32 iterations and 0.00 seconds
Optimal objective  2.444444444e-01
Parameter OutputFlag unchanged
   Value: 1  Min: 0  Max: 1  Default: 1
Optimize a model with 204 rows, 85 columns and 370 nonzeros
Coefficient statistics:
  Matrix range     [2e-02, 1e+00]
  Objective range  [1e+00, 1e+00]
  Bounds range     [0e+00, 0e+00]
  RHS range        [1e+00, 5e+01]
Presolve removed 173 rows and 15 columns
Presolve time: 0.00s
Presolved: 31 rows, 70 columns, 165 nonzeros

Iteration    Objective       Primal Inf.    Dual Inf.      Time
       0    6.8168000e-01   2.584008e+01   0.000000e+00      0s
      29    3.0555556e-01   0.000000e+00   0.000000e+00      0s

Solved in 29 iterations and 0.00 seconds
Optimal objective  3.055555556e-01
Parameter OutputFlag unchanged
   Value: 1  Min: 0  Max: 1  Default: 1
Optimize a model with 204 rows, 85 columns and 370 nonzeros
Coefficient statistics:
  Matrix range     [2e-02, 1e+00]
  Objective range  [1e+00, 1e+00]
  Bounds range     [0e+00, 0e+00]
  RHS range        [1e+00, 6e+01]
Presolve removed 173 rows and 15 columns
Presolve time: 0.00s
Presolved: 31 rows, 70 columns, 165 nonzeros

Iteration    Objective       Primal Inf.    Dual Inf.      Time
       0    6.8168000e-01   3.079008e+01   0.000000e+00      0s
      32    3.6666667e-01   0.000000e+00   0.000000e+00      0s

Solved in 32 iterations and 0.00 seconds
Optimal objective  3.666666667e-01
Parameter OutputFlag unchanged
   Value: 1  Min: 0  Max: 1  Default: 1
Optimize a model with 204 rows, 85 columns and 370 nonzeros
Coefficient statistics:
  Matrix range     [2e-02, 1e+00]
  Objective range  [1e+00, 1e+00]
  Bounds range     [0e+00, 0e+00]
  RHS range        [1e+00, 7e+01]
Presolve removed 173 rows and 15 columns
Presolve time: 0.00s
Presolved: 31 rows, 70 columns, 165 nonzeros

Iteration    Objective       Primal Inf.    Dual Inf.      Time
       0    6.8168000e-01   3.574008e+01   0.000000e+00      0s
      35    4.2777778e-01   0.000000e+00   0.000000e+00      0s

Solved in 35 iterations and 0.00 seconds
Optimal objective  4.277777778e-01
Parameter OutputFlag unchanged
   Value: 1  Min: 0  Max: 1  Default: 1
Optimize a model with 204 rows, 85 columns and 370 nonzeros
Coefficient statistics:
  Matrix range     [2e-02, 1e+00]
  Objective range  [1e+00, 1e+00]
  Bounds range     [0e+00, 0e+00]
  RHS range        [1e+00, 8e+01]
Presolve removed 173 rows and 15 columns
Presolve time: 0.00s
Presolved: 31 rows, 70 columns, 165 nonzeros

Iteration    Objective       Primal Inf.    Dual Inf.      Time
       0    6.8168000e-01   4.069008e+01   0.000000e+00      0s
      51    4.8888889e-01   0.000000e+00   0.000000e+00      0s

Solved in 51 iterations and 0.00 seconds
Optimal objective  4.888888889e-01
Parameter OutputFlag unchanged
   Value: 1  Min: 0  Max: 1  Default: 1
Optimize a model with 204 rows, 85 columns and 370 nonzeros
Coefficient statistics:
  Matrix range     [2e-02, 1e+00]
  Objective range  [1e+00, 1e+00]
  Bounds range     [0e+00, 0e+00]
  RHS range        [1e+00, 9e+01]
Presolve removed 173 rows and 15 columns
Presolve time: 0.00s
Presolved: 31 rows, 70 columns, 165 nonzeros

Iteration    Objective       Primal Inf.    Dual Inf.      Time
       0    6.8168000e-01   4.564008e+01   0.000000e+00      0s
      57    5.5000000e-01   0.000000e+00   0.000000e+00      0s

Solved in 57 iterations and 0.00 seconds
Optimal objective  5.500000000e-01
Parameter OutputFlag unchanged
   Value: 1  Min: 0  Max: 1  Default: 1
Optimize a model with 204 rows, 85 columns and 370 nonzeros
Coefficient statistics:
  Matrix range     [2e-02, 1e+00]
  Objective range  [1e+00, 1e+00]
  Bounds range     [0e+00, 0e+00]
  RHS range        [1e+00, 1e+02]
Presolve removed 173 rows and 15 columns
Presolve time: 0.00s
Presolved: 31 rows, 70 columns, 165 nonzeros

Iteration    Objective       Primal Inf.    Dual Inf.      Time
       0    6.8168000e-01   5.059008e+01   0.000000e+00      0s
      63    6.0389610e-01   0.000000e+00   0.000000e+00      0s

Solved in 63 iterations and 0.00 seconds
Optimal objective  6.038961039e-01

Gurobi 8.1.0 (mac64, Python) logging started Mon Apr 15 21:20:36 2019

Academic license - for non-commercial use only
Parameter OutputFlag unchanged
   Value: 1  Min: 0  Max: 1  Default: 1
Optimize a model with 204 rows, 85 columns and 370 nonzeros
Coefficient statistics:
  Matrix range     [2e-02, 1e+00]
  Objective range  [1e+00, 1e+00]
  Bounds range     [0e+00, 0e+00]
  RHS range        [1e+00, 3e+01]
Presolve removed 204 rows and 85 columns
Presolve time: 0.01s
Presolve: All rows and columns removed
Iteration    Objective       Primal Inf.    Dual Inf.      Time
       0   -0.0000000e+00   0.000000e+00   0.000000e+00      0s

Solved in 0 iterations and 0.01 seconds
Optimal objective -0.000000000e+00
Parameter OutputFlag unchanged
   Value: 1  Min: 0  Max: 1  Default: 1
Optimize a model with 204 rows, 85 columns and 370 nonzeros
Coefficient statistics:
  Matrix range     [2e-02, 1e+00]
  Objective range  [1e+00, 1e+00]
  Bounds range     [0e+00, 0e+00]
  RHS range        [1e+00, 3e+01]
Presolve removed 173 rows and 15 columns
Presolve time: 0.00s
Presolved: 31 rows, 70 columns, 165 nonzeros

Iteration    Objective       Primal Inf.    Dual Inf.      Time
       0    6.8168000e-01   6.040080e+00   0.000000e+00      0s
      22    6.1111111e-02   0.000000e+00   0.000000e+00      0s

Solved in 22 iterations and 0.00 seconds
Optimal objective  6.111111111e-02
Parameter OutputFlag unchanged
   Value: 1  Min: 0  Max: 1  Default: 1
Optimize a model with 204 rows, 85 columns and 370 nonzeros
Coefficient statistics:
  Matrix range     [2e-02, 1e+00]
  Objective range  [1e+00, 1e+00]
  Bounds range     [0e+00, 0e+00]
  RHS range        [1e+00, 3e+01]
Presolve removed 173 rows and 15 columns
Presolve time: 0.00s
Presolved: 31 rows, 70 columns, 165 nonzeros

Iteration    Objective       Primal Inf.    Dual Inf.      Time
       0    6.8168000e-01   1.099008e+01   0.000000e+00      0s
      27    1.2222222e-01   0.000000e+00   0.000000e+00      0s

Solved in 27 iterations and 0.00 seconds
Optimal objective  1.222222222e-01
Parameter OutputFlag unchanged
   Value: 1  Min: 0  Max: 1  Default: 1
Optimize a model with 204 rows, 85 columns and 370 nonzeros
Coefficient statistics:
  Matrix range     [2e-02, 1e+00]
  Objective range  [1e+00, 1e+00]
  Bounds range     [0e+00, 0e+00]
  RHS range        [1e+00, 3e+01]
Presolve removed 173 rows and 15 columns
Presolve time: 0.00s
Presolved: 31 rows, 70 columns, 165 nonzeros

Iteration    Objective       Primal Inf.    Dual Inf.      Time
       0    6.8168000e-01   1.594008e+01   0.000000e+00      0s
      31    1.8333333e-01   0.000000e+00   0.000000e+00      0s

Solved in 31 iterations and 0.00 seconds
Optimal objective  1.833333333e-01
Parameter OutputFlag unchanged
   Value: 1  Min: 0  Max: 1  Default: 1
Optimize a model with 204 rows, 85 columns and 370 nonzeros
Coefficient statistics:
  Matrix range     [2e-02, 1e+00]
  Objective range  [1e+00, 1e+00]
  Bounds range     [0e+00, 0e+00]
  RHS range        [1e+00, 4e+01]
Presolve removed 173 rows and 15 columns
Presolve time: 0.00s
Presolved: 31 rows, 70 columns, 165 nonzeros

Iteration    Objective       Primal Inf.    Dual Inf.      Time
       0    6.8168000e-01   2.089008e+01   0.000000e+00      0s
      32    2.4444444e-01   0.000000e+00   0.000000e+00      0s

Solved in 32 iterations and 0.00 seconds
Optimal objective  2.444444444e-01
Parameter OutputFlag unchanged
   Value: 1  Min: 0  Max: 1  Default: 1
Optimize a model with 204 rows, 85 columns and 370 nonzeros
Coefficient statistics:
  Matrix range     [2e-02, 1e+00]
  Objective range  [1e+00, 1e+00]
  Bounds range     [0e+00, 0e+00]
  RHS range        [1e+00, 5e+01]
Presolve removed 173 rows and 15 columns
Presolve time: 0.00s
Presolved: 31 rows, 70 columns, 165 nonzeros

Iteration    Objective       Primal Inf.    Dual Inf.      Time
       0    6.8168000e-01   2.584008e+01   0.000000e+00      0s
      29    3.0555556e-01   0.000000e+00   0.000000e+00      0s

Solved in 29 iterations and 0.00 seconds
Optimal objective  3.055555556e-01
Parameter OutputFlag unchanged
   Value: 1  Min: 0  Max: 1  Default: 1
Optimize a model with 204 rows, 85 columns and 370 nonzeros
Coefficient statistics:
  Matrix range     [2e-02, 1e+00]
  Objective range  [1e+00, 1e+00]
  Bounds range     [0e+00, 0e+00]
  RHS range        [1e+00, 6e+01]
Presolve removed 173 rows and 15 columns
Presolve time: 0.00s
Presolved: 31 rows, 70 columns, 165 nonzeros

Iteration    Objective       Primal Inf.    Dual Inf.      Time
       0    6.8168000e-01   3.079008e+01   0.000000e+00      0s
      32    3.6666667e-01   0.000000e+00   0.000000e+00      0s

Solved in 32 iterations and 0.00 seconds
Optimal objective  3.666666667e-01
Parameter OutputFlag unchanged
   Value: 1  Min: 0  Max: 1  Default: 1
Optimize a model with 204 rows, 85 columns and 370 nonzeros
Coefficient statistics:
  Matrix range     [2e-02, 1e+00]
  Objective range  [1e+00, 1e+00]
  Bounds range     [0e+00, 0e+00]
  RHS range        [1e+00, 7e+01]
Presolve removed 173 rows and 15 columns
Presolve time: 0.00s
Presolved: 31 rows, 70 columns, 165 nonzeros

Iteration    Objective       Primal Inf.    Dual Inf.      Time
       0    6.8168000e-01   3.574008e+01   0.000000e+00      0s
      35    4.2777778e-01   0.000000e+00   0.000000e+00      0s

Solved in 35 iterations and 0.00 seconds
Optimal objective  4.277777778e-01
Parameter OutputFlag unchanged
   Value: 1  Min: 0  Max: 1  Default: 1
Optimize a model with 204 rows, 85 columns and 370 nonzeros
Coefficient statistics:
  Matrix range     [2e-02, 1e+00]
  Objective range  [1e+00, 1e+00]
  Bounds range     [0e+00, 0e+00]
  RHS range        [1e+00, 8e+01]
Presolve removed 173 rows and 15 columns
Presolve time: 0.00s
Presolved: 31 rows, 70 columns, 165 nonzeros

Iteration    Objective       Primal Inf.    Dual Inf.      Time
       0    6.8168000e-01   4.069008e+01   0.000000e+00      0s
      51    4.8888889e-01   0.000000e+00   0.000000e+00      0s

Solved in 51 iterations and 0.00 seconds
Optimal objective  4.888888889e-01
Parameter OutputFlag unchanged
   Value: 1  Min: 0  Max: 1  Default: 1
Optimize a model with 204 rows, 85 columns and 370 nonzeros
Coefficient statistics:
  Matrix range     [2e-02, 1e+00]
  Objective range  [1e+00, 1e+00]
  Bounds range     [0e+00, 0e+00]
  RHS range        [1e+00, 9e+01]
Presolve removed 173 rows and 15 columns
Presolve time: 0.00s
Presolved: 31 rows, 70 columns, 165 nonzeros

Iteration    Objective       Primal Inf.    Dual Inf.      Time
       0    6.8168000e-01   4.564008e+01   0.000000e+00      0s
      57    5.5000000e-01   0.000000e+00   0.000000e+00      0s

Solved in 57 iterations and 0.00 seconds
Optimal objective  5.500000000e-01
Parameter OutputFlag unchanged
   Value: 1  Min: 0  Max: 1  Default: 1
Optimize a model with 204 rows, 85 columns and 370 nonzeros
Coefficient statistics:
  Matrix range     [2e-02, 1e+00]
  Objective range  [1e+00, 1e+00]
  Bounds range     [0e+00, 0e+00]
  RHS range        [1e+00, 1e+02]
Presolve removed 173 rows and 15 columns
Presolve time: 0.00s
Presolved: 31 rows, 70 columns, 165 nonzeros

Iteration    Objective       Primal Inf.    Dual Inf.      Time
       0    6.8168000e-01   5.059008e+01   0.000000e+00      0s
      63    6.0389610e-01   0.000000e+00   0.000000e+00      0s

Solved in 63 iterations and 0.00 seconds
Optimal objective  6.038961039e-01
